clingo version 4.5.4
Reading from blocks_ASP_prog.lp ...
Solving...
Answer: 1
initCellHasBlock(1,1,6) initCellHasBlock(2,1,5) initCellHasBlock(3,1,4) initCellHasBlock(4,1,3) initCellHasBlock(5,1,2) initCellHasBlock(1,2,1) goalPlatform(1) time(0) time(1) time(2) time(3) time(4) time(5) time(6) time(7) time(8) time(9) time(10) time(11) time(12) time(13) time(14) time(15) time(16) time(17) time(18) time(19) time(20) blocks(1) blocks(2) blocks(3) blocks(4) blocks(5) blocks(6) cells(1,1) cells(2,1) cells(3,1) cells(4,1) cells(5,1) cells(6,1) cells(7,1) cells(1,2) cells(2,2) cells(3,2) cells(4,2) cells(5,2) cells(6,2) cells(7,2) cells(1,3) cells(2,3) cells(3,3) cells(4,3) cells(5,3) cells(6,3) cells(7,3) cells(1,4) cells(2,4) cells(3,4) cells(4,4) cells(5,4) cells(6,4) cells(7,4) platforms(1) platforms(2) platforms(3) platforms(4) cellHasBlock(1,1,6,0) cellHasBlock(2,1,5,0) cellHasBlock(3,1,4,0) cellHasBlock(4,1,3,0) cellHasBlock(5,1,2,0) cellHasBlock(1,2,1,0) notCellClear(1,1,0) notCellClear(1,1,1) notCellClear(1,1,2) notCellClear(1,1,3) notCellClear(1,1,4) notCellClear(1,1,5) notCellClear(1,1,6) notCellClear(1,1,7) notCellClear(1,1,8) notCellClear(1,1,9) notCellClear(1,1,10) notCellClear(1,1,11) notCellClear(1,1,12) notCellClear(1,1,13) notCellClear(1,1,14) notCellClear(1,1,15) notCellClear(1,1,16) notCellClear(1,1,17) notCellClear(1,1,18) notCellClear(1,1,19) notCellClear(1,1,20) notCellClear(2,1,0) notCellClear(2,1,1) notCellClear(2,1,2) notCellClear(2,1,3) notCellClear(2,1,4) notCellClear(2,1,5) notCellClear(2,1,6) notCellClear(2,1,7) cellClear(2,1,8) notCellClear(2,1,9) cellClear(2,1,10) cellClear(2,1,11) notCellClear(2,1,12) notCellClear(2,1,13) notCellClear(2,1,14) notCellClear(2,1,15) notCellClear(2,1,16) notCellClear(2,1,17) notCellClear(2,1,18) notCellClear(2,1,19) notCellClear(2,1,20) notCellClear(3,1,0) notCellClear(3,1,1) notCellClear(3,1,2) notCellClear(3,1,3) notCellClear(3,1,4) cellClear(3,1,5) notCellClear(3,1,6) cellClear(3,1,7) cellClear(3,1,8) cellClear(3,1,9) cellClear(3,1,10) cellClear(3,1,11) cellClear(3,1,12) cellClear(3,1,13) notCellClear(3,1,14) notCellClear(3,1,15) notCellClear(3,1,16) notCellClear(3,1,17) notCellClear(3,1,18) notCellClear(3,1,19) notCellClear(3,1,20) notCellClear(4,1,0) notCellClear(4,1,1) cellClear(4,1,2) cellClear(4,1,3) cellClear(4,1,4) cellClear(4,1,5) cellClear(4,1,6) cellClear(4,1,7) cellClear(4,1,8) cellClear(4,1,9) cellClear(4,1,10) cellClear(4,1,11) cellClear(4,1,12) cellClear(4,1,13) cellClear(4,1,14) notCellClear(4,1,15) notCellClear(4,1,16) cellClear(4,1,17) notCellClear(4,1,18) notCellClear(4,1,19) notCellClear(4,1,20) notCellClear(5,1,0) cellClear(5,1,1) cellClear(5,1,2) cellClear(5,1,3) cellClear(5,1,4) cellClear(5,1,5) cellClear(5,1,6) cellClear(5,1,7) cellClear(5,1,8) cellClear(5,1,9) cellClear(5,1,10) cellClear(5,1,11) cellClear(5,1,12) cellClear(5,1,13) cellClear(5,1,14) cellClear(5,1,15) cellClear(5,1,16) cellClear(5,1,17) cellClear(5,1,18) notCellClear(5,1,19) notCellClear(5,1,20) cellClear(6,1,0) cellClear(6,1,1) cellClear(6,1,2) cellClear(6,1,3) cellClear(6,1,4) cellClear(6,1,5) cellClear(6,1,6) cellClear(6,1,7) cellClear(6,1,8) cellClear(6,1,9) cellClear(6,1,10) cellClear(6,1,11) cellClear(6,1,12) cellClear(6,1,13) cellClear(6,1,14) cellClear(6,1,15) cellClear(6,1,16) cellClear(6,1,17) cellClear(6,1,18) cellClear(6,1,19) notCellClear(6,1,20) cellClear(7,1,0) cellClear(7,1,1) cellClear(7,1,2) cellClear(7,1,3) cellClear(7,1,4) cellClear(7,1,5) cellClear(7,1,6) cellClear(7,1,7) cellClear(7,1,8) cellClear(7,1,9) cellClear(7,1,10) cellClear(7,1,11) cellClear(7,1,12) cellClear(7,1,13) cellClear(7,1,14) cellClear(7,1,15) cellClear(7,1,16) cellClear(7,1,17) cellClear(7,1,18) cellClear(7,1,19) cellClear(7,1,20) notCellClear(1,2,0) notCellClear(1,2,1) notCellClear(1,2,2) notCellClear(1,2,3) cellClear(1,2,4) notCellClear(1,2,5) cellClear(1,2,6) notCellClear(1,2,7) notCellClear(1,2,8) notCellClear(1,2,9) notCellClear(1,2,10) notCellClear(1,2,11) notCellClear(1,2,12) notCellClear(1,2,13) cellClear(1,2,14) cellClear(1,2,15) notCellClear(1,2,16) notCellClear(1,2,17) notCellClear(1,2,18) notCellClear(1,2,19) cellClear(1,2,20) cellClear(2,2,0) cellClear(2,2,1) cellClear(2,2,2) cellClear(2,2,3) cellClear(2,2,4) cellClear(2,2,5) cellClear(2,2,6) cellClear(2,2,7) cellClear(2,2,8) cellClear(2,2,9) cellClear(2,2,10) notCellClear(2,2,11) notCellClear(2,2,12) cellClear(2,2,13) cellClear(2,2,14) cellClear(2,2,15) cellClear(2,2,16) cellClear(2,2,17) cellClear(2,2,18) cellClear(2,2,19) cellClear(2,2,20) cellClear(3,2,0) cellClear(3,2,1) cellClear(3,2,2) cellClear(3,2,3) cellClear(3,2,4) cellClear(3,2,5) cellClear(3,2,6) cellClear(3,2,7) cellClear(3,2,8) cellClear(3,2,9) cellClear(3,2,10) cellClear(3,2,11) cellClear(3,2,12) cellClear(3,2,13) cellClear(3,2,14) cellClear(3,2,15) cellClear(3,2,16) cellClear(3,2,17) cellClear(3,2,18) cellClear(3,2,19) cellClear(3,2,20) cellClear(4,2,0) cellClear(4,2,1) cellClear(4,2,2) cellClear(4,2,3) cellClear(4,2,4) cellClear(4,2,5) cellClear(4,2,6) cellClear(4,2,7) cellClear(4,2,8) cellClear(4,2,9) cellClear(4,2,10) cellClear(4,2,11) cellClear(4,2,12) cellClear(4,2,13) cellClear(4,2,14) cellClear(4,2,15) cellClear(4,2,16) cellClear(4,2,17) cellClear(4,2,18) cellClear(4,2,19) cellClear(4,2,20) cellClear(5,2,0) cellClear(5,2,1) cellClear(5,2,2) cellClear(5,2,3) cellClear(5,2,4) cellClear(5,2,5) cellClear(5,2,6) cellClear(5,2,7) cellClear(5,2,8) cellClear(5,2,9) cellClear(5,2,10) cellClear(5,2,11) cellClear(5,2,12) cellClear(5,2,13) cellClear(5,2,14) cellClear(5,2,15) cellClear(5,2,16) cellClear(5,2,17) cellClear(5,2,18) cellClear(5,2,19) cellClear(5,2,20) cellClear(6,2,0) cellClear(6,2,1) cellClear(6,2,2) cellClear(6,2,3) cellClear(6,2,4) cellClear(6,2,5) cellClear(6,2,6) cellClear(6,2,7) cellClear(6,2,8) cellClear(6,2,9) cellClear(6,2,10) cellClear(6,2,11) cellClear(6,2,12) cellClear(6,2,13) cellClear(6,2,14) cellClear(6,2,15) cellClear(6,2,16) cellClear(6,2,17) cellClear(6,2,18) cellClear(6,2,19) cellClear(6,2,20) cellClear(7,2,0) cellClear(7,2,1) cellClear(7,2,2) cellClear(7,2,3) cellClear(7,2,4) cellClear(7,2,5) cellClear(7,2,6) cellClear(7,2,7) cellClear(7,2,8) cellClear(7,2,9) cellClear(7,2,10) cellClear(7,2,11) cellClear(7,2,12) cellClear(7,2,13) cellClear(7,2,14) cellClear(7,2,15) cellClear(7,2,16) cellClear(7,2,17) cellClear(7,2,18) cellClear(7,2,19) cellClear(7,2,20) cellClear(1,3,0) cellClear(1,3,1) notCellClear(1,3,2) notCellClear(1,3,3) notCellClear(1,3,4) notCellClear(1,3,5) notCellClear(1,3,6) notCellClear(1,3,7) notCellClear(1,3,8) notCellClear(1,3,9) notCellClear(1,3,10) notCellClear(1,3,11) notCellClear(1,3,12) notCellClear(1,3,13) notCellClear(1,3,14) notCellClear(1,3,15) notCellClear(1,3,16) notCellClear(1,3,17) cellClear(1,3,18) cellClear(1,3,19) cellClear(1,3,20) cellClear(2,3,0) cellClear(2,3,1) cellClear(2,3,2) notCellClear(2,3,3) notCellClear(2,3,4) notCellClear(2,3,5) notCellClear(2,3,6) notCellClear(2,3,7) notCellClear(2,3,8) notCellClear(2,3,9) notCellClear(2,3,10) notCellClear(2,3,11) notCellClear(2,3,12) notCellClear(2,3,13) notCellClear(2,3,14) cellClear(2,3,15) cellClear(2,3,16) cellClear(2,3,17) cellClear(2,3,18) cellClear(2,3,19) cellClear(2,3,20) cellClear(3,3,0) cellClear(3,3,1) cellClear(3,3,2) cellClear(3,3,3) notCellClear(3,3,4) notCellClear(3,3,5) notCellClear(3,3,6) notCellClear(3,3,7) notCellClear(3,3,8) notCellClear(3,3,9) notCellClear(3,3,10) cellClear(3,3,11) cellClear(3,3,12) cellClear(3,3,13) cellClear(3,3,14) cellClear(3,3,15) cellClear(3,3,16) cellClear(3,3,17) cellClear(3,3,18) cellClear(3,3,19) cellClear(3,3,20) cellClear(4,3,0) cellClear(4,3,1) cellClear(4,3,2) cellClear(4,3,3) cellClear(4,3,4) cellClear(4,3,5) cellClear(4,3,6) cellClear(4,3,7) cellClear(4,3,8) cellClear(4,3,9) cellClear(4,3,10) cellClear(4,3,11) cellClear(4,3,12) cellClear(4,3,13) cellClear(4,3,14) cellClear(4,3,15) cellClear(4,3,16) cellClear(4,3,17) cellClear(4,3,18) cellClear(4,3,19) cellClear(4,3,20) cellClear(5,3,0) cellClear(5,3,1) cellClear(5,3,2) cellClear(5,3,3) cellClear(5,3,4) cellClear(5,3,5) cellClear(5,3,6) cellClear(5,3,7) cellClear(5,3,8) cellClear(5,3,9) cellClear(5,3,10) cellClear(5,3,11) cellClear(5,3,12) cellClear(5,3,13) cellClear(5,3,14) cellClear(5,3,15) cellClear(5,3,16) cellClear(5,3,17) cellClear(5,3,18) cellClear(5,3,19) cellClear(5,3,20) cellClear(6,3,0) cellClear(6,3,1) cellClear(6,3,2) cellClear(6,3,3) cellClear(6,3,4) cellClear(6,3,5) cellClear(6,3,6) cellClear(6,3,7) cellClear(6,3,8) cellClear(6,3,9) cellClear(6,3,10) cellClear(6,3,11) cellClear(6,3,12) cellClear(6,3,13) cellClear(6,3,14) cellClear(6,3,15) cellClear(6,3,16) cellClear(6,3,17) cellClear(6,3,18) cellClear(6,3,19) cellClear(6,3,20) cellClear(7,3,0) cellClear(7,3,1) cellClear(7,3,2) cellClear(7,3,3) cellClear(7,3,4) cellClear(7,3,5) cellClear(7,3,6) cellClear(7,3,7) cellClear(7,3,8) cellClear(7,3,9) cellClear(7,3,10) cellClear(7,3,11) cellClear(7,3,12) cellClear(7,3,13) cellClear(7,3,14) cellClear(7,3,15) cellClear(7,3,16) cellClear(7,3,17) cellClear(7,3,18) cellClear(7,3,19) cellClear(7,3,20) cellClear(1,4,0) notCellClear(1,4,1) notCellClear(1,4,2) cellClear(1,4,3) cellClear(1,4,4) cellClear(1,4,5) cellClear(1,4,6) cellClear(1,4,7) notCellClear(1,4,8) cellClear(1,4,9) notCellClear(1,4,10) notCellClear(1,4,11) cellClear(1,4,12) notCellClear(1,4,13) notCellClear(1,4,14) notCellClear(1,4,15) cellClear(1,4,16) notCellClear(1,4,17) notCellClear(1,4,18) cellClear(1,4,19) cellClear(1,4,20) cellClear(2,4,0) cellClear(2,4,1) cellClear(2,4,2) cellClear(2,4,3) cellClear(2,4,4) cellClear(2,4,5) cellClear(2,4,6) cellClear(2,4,7) cellClear(2,4,8) cellClear(2,4,9) cellClear(2,4,10) cellClear(2,4,11) cellClear(2,4,12) cellClear(2,4,13) cellClear(2,4,14) cellClear(2,4,15) cellClear(2,4,16) cellClear(2,4,17) cellClear(2,4,18) cellClear(2,4,19) cellClear(2,4,20) cellClear(3,4,0) cellClear(3,4,1) cellClear(3,4,2) cellClear(3,4,3) cellClear(3,4,4) cellClear(3,4,5) cellClear(3,4,6) cellClear(3,4,7) cellClear(3,4,8) cellClear(3,4,9) cellClear(3,4,10) cellClear(3,4,11) cellClear(3,4,12) cellClear(3,4,13) cellClear(3,4,14) cellClear(3,4,15) cellClear(3,4,16) cellClear(3,4,17) cellClear(3,4,18) cellClear(3,4,19) cellClear(3,4,20) cellClear(4,4,0) cellClear(4,4,1) cellClear(4,4,2) cellClear(4,4,3) cellClear(4,4,4) cellClear(4,4,5) cellClear(4,4,6) cellClear(4,4,7) cellClear(4,4,8) cellClear(4,4,9) cellClear(4,4,10) cellClear(4,4,11) cellClear(4,4,12) cellClear(4,4,13) cellClear(4,4,14) cellClear(4,4,15) cellClear(4,4,16) cellClear(4,4,17) cellClear(4,4,18) cellClear(4,4,19) cellClear(4,4,20) cellClear(5,4,0) cellClear(5,4,1) cellClear(5,4,2) cellClear(5,4,3) cellClear(5,4,4) cellClear(5,4,5) cellClear(5,4,6) cellClear(5,4,7) cellClear(5,4,8) cellClear(5,4,9) cellClear(5,4,10) cellClear(5,4,11) cellClear(5,4,12) cellClear(5,4,13) cellClear(5,4,14) cellClear(5,4,15) cellClear(5,4,16) cellClear(5,4,17) cellClear(5,4,18) cellClear(5,4,19) cellClear(5,4,20) cellClear(6,4,0) cellClear(6,4,1) cellClear(6,4,2) cellClear(6,4,3) cellClear(6,4,4) cellClear(6,4,5) cellClear(6,4,6) cellClear(6,4,7) cellClear(6,4,8) cellClear(6,4,9) cellClear(6,4,10) cellClear(6,4,11) cellClear(6,4,12) cellClear(6,4,13) cellClear(6,4,14) cellClear(6,4,15) cellClear(6,4,16) cellClear(6,4,17) cellClear(6,4,18) cellClear(6,4,19) cellClear(6,4,20) cellClear(7,4,0) cellClear(7,4,1) cellClear(7,4,2) cellClear(7,4,3) cellClear(7,4,4) cellClear(7,4,5) cellClear(7,4,6) cellClear(7,4,7) cellClear(7,4,8) cellClear(7,4,9) cellClear(7,4,10) cellClear(7,4,11) cellClear(7,4,12) cellClear(7,4,13) cellClear(7,4,14) cellClear(7,4,15) cellClear(7,4,16) cellClear(7,4,17) cellClear(7,4,18) cellClear(7,4,19) cellClear(7,4,20) allStackedPlatformTime(1,20) cellHasBlock(1,1,6,1) cellHasBlock(2,1,5,1) cellHasBlock(3,1,4,1) cellHasBlock(4,1,3,1) cellHasBlock(1,2,1,1) cellHasBlock(1,1,6,2) cellHasBlock(2,1,5,2) cellHasBlock(3,1,4,2) cellHasBlock(1,2,1,2) cellHasBlock(1,1,6,3) cellHasBlock(2,1,5,3) cellHasBlock(3,1,4,3) cellHasBlock(1,2,1,3) movedBlock(2,0) moveBlockCell(2,1,4,0) cellHasBlock(1,4,2,1) cellHasBlock(1,1,6,4) cellHasBlock(2,1,5,4) cellHasBlock(3,1,4,4) cellHasBlock(1,3,3,2) cellHasBlock(1,4,2,2) movedBlock(3,1) moveBlockCell(3,1,3,1) cellHasBlock(1,1,6,5) cellHasBlock(2,1,5,5) cellHasBlock(1,3,3,3) movedBlock(2,2) cellHasBlock(1,1,6,6) cellHasBlock(2,1,5,6) cellHasBlock(3,1,4,6) cellHasBlock(1,3,3,4) movedBlock(1,3) cellHasBlock(1,1,6,7) cellHasBlock(2,1,5,7) cellHasBlock(1,2,4,5) cellHasBlock(1,3,3,5) cellHasBlock(2,3,2,3) moveBlockCell(2,2,3,2) movedBlock(4,4) moveBlockCell(4,1,2,4) cellHasBlock(1,1,6,8) cellHasBlock(1,3,3,6) cellHasBlock(2,3,2,4) movedBlock(4,5) cellHasBlock(1,1,6,9) cellHasBlock(2,1,5,9) cellHasBlock(1,2,4,7) cellHasBlock(1,3,3,7) cellHasBlock(2,3,2,5) movedBlock(4,6) moveBlockCell(4,1,2,6) cellHasBlock(1,1,6,10) cellHasBlock(1,4,5,8) cellHasBlock(1,2,4,8) cellHasBlock(1,3,3,8) cellHasBlock(2,3,2,6) cellHasBlock(3,3,1,4) moveBlockCell(1,3,3,3) moveBlockCell(4,3,1,5) movedBlock(5,7) moveBlockCell(5,1,4,7) cellHasBlock(1,1,6,11) cellHasBlock(1,2,4,9) cellHasBlock(1,3,3,9) cellHasBlock(2,3,2,7) cellHasBlock(3,3,1,5) movedBlock(5,8) cellHasBlock(1,1,6,12) cellHasBlock(2,1,5,12) cellHasBlock(1,4,5,10) cellHasBlock(1,2,4,10) cellHasBlock(1,3,3,10) cellHasBlock(2,3,2,8) cellHasBlock(3,3,1,6) movedBlock(5,9) moveBlockCell(5,1,4,9) cellHasBlock(1,1,6,13) cellHasBlock(2,1,5,13) cellHasBlock(1,4,5,11) cellHasBlock(1,2,4,11) cellHasBlock(1,3,3,11) cellHasBlock(2,3,2,9) cellHasBlock(3,3,1,7) movedBlock(1,10) moveBlockCell(5,2,1,8) cellHasBlock(1,1,6,14) cellHasBlock(2,1,5,14) cellHasBlock(3,1,4,14) cellHasBlock(1,2,4,12) cellHasBlock(1,3,3,12) cellHasBlock(2,3,2,10) cellHasBlock(3,3,1,8) movedBlock(5,11) cellHasBlock(1,1,6,15) cellHasBlock(2,1,5,15) cellHasBlock(3,1,4,15) cellHasBlock(1,2,4,13) cellHasBlock(1,3,3,13) cellHasBlock(1,4,1,13) cellHasBlock(2,2,1,11) cellHasBlock(2,3,2,11) cellHasBlock(3,3,1,9) movedBlock(1,12) moveBlockCell(1,2,2,10) moveBlockCell(1,1,4,12) cellHasBlock(1,1,6,16) cellHasBlock(2,1,5,16) cellHasBlock(3,1,4,16) cellHasBlock(1,2,1,16) cellHasBlock(1,3,3,14) cellHasBlock(1,4,1,14) cellHasBlock(2,2,1,12) cellHasBlock(2,3,2,12) cellHasBlock(3,3,1,10) moveBlockCell(5,2,1,11) movedBlock(4,13) cellHasBlock(1,1,6,17) cellHasBlock(2,1,5,17) cellHasBlock(3,1,4,17) cellHasBlock(1,2,1,17) cellHasBlock(1,3,3,15) cellHasBlock(1,4,1,15) cellHasBlock(2,3,2,13) movedBlock(2,14) cellHasBlock(1,1,6,18) cellHasBlock(2,1,5,18) cellHasBlock(3,1,4,18) cellHasBlock(4,1,3,18) cellHasBlock(1,2,1,18) cellHasBlock(1,3,3,16) cellHasBlock(2,3,2,14) movedBlock(1,15) moveBlockCell(4,3,1,13) cellHasBlock(1,1,6,19) cellHasBlock(2,1,5,19) cellHasBlock(3,1,4,19) cellHasBlock(4,1,3,19) cellHasBlock(5,1,2,19) cellHasBlock(1,2,1,19) cellHasBlock(1,3,3,17) cellHasBlock(1,4,2,17) cellHasBlock(4,1,2,15) moveBlockCell(2,4,1,14) movedBlock(2,16) moveBlockCell(2,1,4,16) cellHasBlock(1,1,6,20) cellHasBlock(2,1,5,20) cellHasBlock(3,1,4,20) cellHasBlock(4,1,3,20) cellHasBlock(5,1,2,20) cellHasBlock(1,4,2,18) cellHasBlock(4,1,2,16) movedBlock(3,17) moveBlockCell(1,1,2,15) movedBlock(2,18) cellHasBlock(6,1,1,20) movedBlock(1,19) moveBlockCell(1,6,1,19) moveBlockCell(3,4,1,17) moveBlockCell(2,5,1,18) movedTime(0) movedTime(1) movedTime(2) movedTime(3) movedTime(4) movedTime(5) movedTime(6) movedTime(7) movedTime(8) movedTime(9) movedTime(10) movedTime(11) movedTime(12) movedTime(13) movedTime(14) movedTime(15) movedTime(16) movedTime(17) movedTime(18) movedTime(19) allStackedPlatform(1) hasAllStackedTime allStackedTime(20) moveCellCell(3,1,2,3,3) moveCellCell(1,4,1,1,3) moveCellCell(2,1,4,2,3) moveCellCell(5,1,2,3,1) moveCellCell(4,3,1,1,2) moveCellCell(6,3,1,1,2) moveCellCell(7,2,1,1,4) moveCellCell(8,1,4,2,1) moveCellCell(9,2,1,1,4) moveCellCell(13,1,2,3,1) moveCellCell(11,1,4,2,1) moveCellCell(12,2,2,1,4) moveCellCell(10,3,3,2,2) moveCellCell(15,1,4,1,2) moveCellCell(16,4,1,1,4) moveCellCell(14,2,3,4,1) moveCellCell(19,1,2,6,1) moveCellCell(17,1,3,4,1) moveCellCell(18,1,4,5,1) moveCellCell(0,5,1,1,4)
SATISFIABLE

Models       : 1+    
Calls        : 1
Time         : 4.635s (Solving: 4.03s 1st Model: 4.03s Unsat: 0.00s)
CPU Time     : 4.630s
